95 1
8 48
38 60
51 50
96 91
88 70
67 57
39 25
81 51
86 56
4 91
49 67
33 79
59 119
47 36
26 88
56 81
21 108
77 28
75 73
10 100
42 59
15 93
19 73
62 70
56 113
81 121
32 79
108 114
51 81
81 99
7 116
79 111
39 115
58 106
93 161
55 127
22 75
76 147
10 101
74 182
31 167
52 162
39 132
53 138
85 146
78 114
67 113
46 112
32 126
72 198
3 194
66 155
21 191
75 138
10 207
50 224
49 177
36 156
9 239
47 243
14 195
77 169
9 157
102 215
71 190
45 240
28 219
26 165
37 224
20 242
60 244
63 191
79 258
63 193
47 218
50 210
73 235
83 190
38 238
84 290
54 281
3 280
83 222
87 227
97 234
86 293
19 270
35 266
79 240
73 249
58 289
52 318
42 269
98 272
19 322
40 297
82 261
39 292
74 252
